<number of tasks>
50

<cycle time>
1000

<order strength>
0.598


<task times>
1 87
2 244
3 221
4 182
5 210
6 71
7 160
8 117
9 143
10 114
11 323
12 73
13 83
14 142
15 224
16 292
17 34
18 58
19 40
20 289
21 38
22 274
23 87
24 215
25 102
26 182
27 91
28 164
29 114
30 40
31 150
32 25
33 83
34 92
35 143
36 47
37 108
38 74
39 210
40 161
41 199
42 98
43 80
44 61
45 112
46 194
47 50
48 232
49 188
50 151

<precedence relations>
1,16
2,14
3,4
3,5
3,6
3,7
3,8
3,9
3,10
4,16
5,35
6,14
7,14
8,14
9,13
9,15
10,11
10,12
10,34
11,16
12,16
13,35
14,17
14,18
14,19
14,20
15,21
15,22
16,23
16,24
16,25
16,26
17,28
18,27
18,37
19,32
19,33
19,42
19,45
19,46
20,31
20,34
20,37
21,27
21,28
21,29
22,35
23,30
24,33
24,35
25,30
25,31
25,32
25,33
26,31
26,33
26,36
27,35
28,30
28,31
28,32
28,33
28,34
29,30
29,31
29,32
29,33
29,34
30,35
31,35
32,48
33,37
34,36
35,38
35,39
35,40
35,41
36,42
37,47
37,49
38,50
39,45
40,44
40,45
40,46
41,42
41,43
42,47
43,46
45,50
46,49
47,48
47,50

<end>
